Problem:    courses
Rows:       4
Columns:    4
Non-zeros:  16
Status:     OPTIMAL
Objective:  total_effort = 8 (MINimum)

   No.   Row name   St   Activity     Lower bound   Upper bound    Marginal
------ ------------ -- ------------- ------------- ------------- -------------
     1 total_effort B              8                             
     2 req_filled[ns]
                    NL            10            10                    0.153846 
     3 req_filled[ss]
                    NL            10            10                         0.5 
     4 req_filled[hm]
                    NL            10            10                    0.192308 

   No. Column name  St   Activity     Lower bound   Upper bound    Marginal
------ ------------ -- ------------- ------------- ------------- -------------
     1 courses_taken[c1]
                    B              0             0             1 
     2 courses_taken[c2]
                    B              1             0             1 
     3 courses_taken[c3]
                    NU             1             0             1     -0.461538 
     4 courses_taken[c4]
                    B            0.5             0             1 

Karush-Kuhn-Tucker optimality conditions:

KKT.PE: max.abs.err = 1.78e-15 on row 3
        max.rel.err = 8.46e-17 on row 3
        High quality

KKT.PB: max.abs.err = 4.10e-16 on column 1
        max.rel.err = 4.10e-16 on column 1
        High quality

KKT.DE: max.abs.err = 8.88e-16 on column 1
        max.rel.err = 8.07e-17 on column 1
        High quality

KKT.DB: max.abs.err = 0.00e+00 on row 0
        max.rel.err = 0.00e+00 on row 0
        High quality

End of output
